n = 158;
rows = 320;
supports = [|
  {1},2..4,
 |{1},156..158,
 |{2},{1},
 |{2},3..5,
 |{2},157..158,
 |{3},1..2,
 |{3},4..6,
 |{3},{158},
 |{4},1..3,
 |{4},5..7,
 |{5},2..4,
 |{5},6..8,
 |{6},3..5,
 |{6},7..9,
 |{7},4..6,
 |{7},8..10,
 |{8},5..7,
 |{8},9..11,
 |{9},6..8,
 |{9},10..12,
 |{10},7..9,
 |{10},11..13,
 |{11},8..10,
 |{11},12..14,
 |{12},9..11,
 |{12},13..15,
 |{13},10..12,
 |{13},14..16,
 |{14},11..13,
 |{14},15..17,
 |{15},12..14,
 |{15},16..18,
 |{16},13..15,
 |{16},17..19,
 |{17},14..16,
 |{17},18..20,
 |{18},15..17,
 |{18},19..21,
 |{19},16..18,
 |{19},20..22,
 |{20},17..19,
 |{20},21..23,
 |{21},18..20,
 |{21},22..24,
 |{22},19..21,
 |{22},23..25,
 |{23},20..22,
 |{23},24..26,
 |{24},21..23,
 |{24},25..27,
 |{25},22..24,
 |{25},26..28,
 |{26},23..25,
 |{26},27..29,
 |{27},24..26,
 |{27},28..30,
 |{28},25..27,
 |{28},29..31,
 |{29},26..28,
 |{29},30..32,
 |{30},27..29,
 |{30},31..33,
 |{31},28..30,
 |{31},32..34,
 |{32},29..31,
 |{32},33..35,
 |{33},30..32,
 |{33},34..36,
 |{34},31..33,
 |{34},35..37,
 |{35},32..34,
 |{35},36..38,
 |{36},33..35,
 |{36},37..39,
 |{37},34..36,
 |{37},38..40,
 |{38},35..37,
 |{38},39..41,
 |{39},36..38,
 |{39},40..42,
 |{40},37..39,
 |{40},41..43,
 |{41},38..40,
 |{41},42..44,
 |{42},39..41,
 |{42},43..45,
 |{43},40..42,
 |{43},44..46,
 |{44},41..43,
 |{44},45..47,
 |{45},42..44,
 |{45},46..48,
 |{46},43..45,
 |{46},47..49,
 |{47},44..46,
 |{47},48..50,
 |{48},45..47,
 |{48},49..51,
 |{49},46..48,
 |{49},50..52,
 |{50},47..49,
 |{50},51..53,
 |{51},48..50,
 |{51},52..54,
 |{52},49..51,
 |{52},53..55,
 |{53},50..52,
 |{53},54..56,
 |{54},51..53,
 |{54},55..57,
 |{55},52..54,
 |{55},56..58,
 |{56},53..55,
 |{56},57..59,
 |{57},54..56,
 |{57},58..60,
 |{58},55..57,
 |{58},59..61,
 |{59},56..58,
 |{59},60..62,
 |{60},57..59,
 |{60},61..63,
 |{61},58..60,
 |{61},62..64,
 |{62},59..61,
 |{62},63..65,
 |{63},60..62,
 |{63},64..66,
 |{64},61..63,
 |{64},65..67,
 |{65},62..64,
 |{65},66..68,
 |{66},63..65,
 |{66},67..69,
 |{67},64..66,
 |{67},68..70,
 |{68},65..67,
 |{68},69..71,
 |{69},66..68,
 |{69},70..72,
 |{70},67..69,
 |{70},71..73,
 |{71},68..70,
 |{71},72..74,
 |{72},69..71,
 |{72},73..75,
 |{73},70..72,
 |{73},74..76,
 |{74},71..73,
 |{74},75..77,
 |{75},72..74,
 |{75},76..78,
 |{76},73..75,
 |{76},77..79,
 |{77},74..76,
 |{77},78..80,
 |{78},75..77,
 |{78},79..81,
 |{79},76..78,
 |{79},80..82,
 |{80},77..79,
 |{80},81..83,
 |{81},78..80,
 |{81},82..84,
 |{82},79..81,
 |{82},83..85,
 |{83},80..82,
 |{83},84..86,
 |{84},81..83,
 |{84},85..87,
 |{85},82..84,
 |{85},86..88,
 |{86},83..85,
 |{86},87..89,
 |{87},84..86,
 |{87},88..90,
 |{88},85..87,
 |{88},89..91,
 |{89},86..88,
 |{89},90..92,
 |{90},87..89,
 |{90},91..93,
 |{91},88..90,
 |{91},92..94,
 |{92},89..91,
 |{92},93..95,
 |{93},90..92,
 |{93},94..96,
 |{94},91..93,
 |{94},95..97,
 |{95},92..94,
 |{95},96..98,
 |{96},93..95,
 |{96},97..99,
 |{97},94..96,
 |{97},98..100,
 |{98},95..97,
 |{98},99..101,
 |{99},96..98,
 |{99},100..102,
 |{100},97..99,
 |{100},101..103,
 |{101},98..100,
 |{101},102..104,
 |{102},99..101,
 |{102},103..105,
 |{103},100..102,
 |{103},104..106,
 |{104},101..103,
 |{104},105..107,
 |{105},102..104,
 |{105},106..108,
 |{106},103..105,
 |{106},107..109,
 |{107},104..106,
 |{107},108..110,
 |{108},105..107,
 |{108},109..111,
 |{109},106..108,
 |{109},110..112,
 |{110},107..109,
 |{110},111..113,
 |{111},108..110,
 |{111},112..114,
 |{112},109..111,
 |{112},113..115,
 |{113},110..112,
 |{113},114..116,
 |{114},111..113,
 |{114},115..117,
 |{115},112..114,
 |{115},116..118,
 |{116},113..115,
 |{116},117..119,
 |{117},114..116,
 |{117},118..120,
 |{118},115..117,
 |{118},119..121,
 |{119},116..118,
 |{119},120..122,
 |{120},117..119,
 |{120},121..123,
 |{121},118..120,
 |{121},122..124,
 |{122},119..121,
 |{122},123..125,
 |{123},120..122,
 |{123},124..126,
 |{124},121..123,
 |{124},125..127,
 |{125},122..124,
 |{125},126..128,
 |{126},123..125,
 |{126},127..129,
 |{127},124..126,
 |{127},128..130,
 |{128},125..127,
 |{128},129..131,
 |{129},126..128,
 |{129},130..132,
 |{130},127..129,
 |{130},131..133,
 |{131},128..130,
 |{131},132..134,
 |{132},129..131,
 |{132},133..135,
 |{133},130..132,
 |{133},134..136,
 |{134},131..133,
 |{134},135..137,
 |{135},132..134,
 |{135},136..138,
 |{136},133..135,
 |{136},137..139,
 |{137},134..136,
 |{137},138..140,
 |{138},135..137,
 |{138},139..141,
 |{139},136..138,
 |{139},140..142,
 |{140},137..139,
 |{140},141..143,
 |{141},138..140,
 |{141},142..144,
 |{142},139..141,
 |{142},143..145,
 |{143},140..142,
 |{143},144..146,
 |{144},141..143,
 |{144},145..147,
 |{145},142..144,
 |{145},146..148,
 |{146},143..145,
 |{146},147..149,
 |{147},144..146,
 |{147},148..150,
 |{148},145..147,
 |{148},149..151,
 |{149},146..148,
 |{149},150..152,
 |{150},147..149,
 |{150},151..153,
 |{151},148..150,
 |{151},152..154,
 |{152},149..151,
 |{152},153..155,
 |{153},150..152,
 |{153},154..156,
 |{154},151..153,
 |{154},155..157,
 |{155},152..154,
 |{155},156..158,
 |{156},153..155,
 |{156},157..158,
 |{156},{1},
 |{157},154..156,
 |{157},{158},
 |{157},1..2,
 |{158},155..157,
 |{158},1..3 |];

t = 312;

indexes = [|
    0,61,
  | 0,69,
  | 0,85,
  | 0,96,
  | 1,11,
  | 1,19,
  | 1,49,
  | 1,150,
  | 2,3,
  | 2,32,
  | 2,112,
  | 2,140,
  | 3,28,
  | 3,42,
  | 3,127,
  | 4,29,
  | 4,35,
  | 4,73,
  | 4,76,
  | 5,24,
  | 5,31,
  | 5,131,
  | 5,137,
  | 6,52,
  | 6,58,
  | 6,78,
  | 6,152,
  | 7,103,
  | 7,115,
  | 7,147,
  | 7,154,
  | 8,43,
  | 8,53,
  | 8,108,
  | 8,142,
  | 9,56,
  | 9,84,
  | 9,135,
  | 9,148,
  | 10,11,
  | 10,19,
  | 10,49,
  | 10,150,
  | 11,68,
  | 11,77,
  | 12,19,
  | 12,40,
  | 12,49,
  | 12,121,
  | 13,30,
  | 13,59,
  | 13,99,
  | 13,130,
  | 14,88,
  | 14,100,
  | 14,114,
  | 14,129,
  | 15,27,
  | 15,81,
  | 15,107,
  | 15,157,
  | 16,30,
  | 16,59,
  | 16,116,
  | 16,117,
  | 17,81,
  | 17,95,
  | 17,105,
  | 17,157,
  | 18,22,
  | 18,61,
  | 18,96,
  | 18,119,
  | 19,33,
  | 20,43,
  | 20,53,
  | 20,108,
  | 20,142,
  | 21,41,
  | 21,89,
  | 22,54,
  | 22,64,
  | 22,120,
  | 23,44,
  | 23,75,
  | 23,91,
  | 23,104,
  | 24,66,
  | 24,68,
  | 24,77,
  | 25,26,
  | 25,60,
  | 25,116,
  | 25,117,
  | 26,65,
  | 26,118,
  | 26,155,
  | 27,41,
  | 27,89,
  | 27,110,
  | 28,36,
  | 28,112,
  | 28,134,
  | 29,48,
  | 29,57,
  | 29,93,
  | 30,113,
  | 30,145,
  | 31,35,
  | 31,66,
  | 31,76,
  | 32,42,
  | 32,46,
  | 32,63,
  | 33,40,
  | 33,49,
  | 33,121,
  | 34,70,
  | 34,82,
  | 34,124,
  | 34,138,
  | 35,48,
  | 35,131,
  | 36,47,
  | 36,90,
  | 36,127,
  | 37,118,
  | 37,155,
  | 38,52,
  | 38,102,
  | 38,146,
  | 38,152,
  | 39,70,
  | 39,82,
  | 39,103,
  | 39,115,
  | 40,44,
  | 40,75,
  | 41,67,
  | 41,107,
  | 42,112,
  | 42,140,
  | 43,102,
  | 43,146,
  | 44,121,
  | 44,122,
  | 45,58,
  | 45,78,
  | 45,98,
  | 45,106,
  | 46,91,
  | 46,104,
  | 46,140,
  | 47,53,
  | 47,108,
  | 47,134,
  | 48,73,
  | 48,76,
  | 50,111,
  | 50,133,
  | 50,143,
  | 50,151,
  | 51,52,
  | 51,58,
  | 51,78,
  | 51,152,
  | 52,101,
  | 53,90,
  | 54,61,
  | 54,96,
  | 54,119,
  | 55,61,
  | 55,69,
  | 55,85,
  | 55,96,
  | 56,71,
  | 56,80,
  | 56,123,
  | 57,73,
  | 57,147,
  | 57,154,
  | 58,144,
  | 59,113,
  | 59,145,
  | 60,65,
  | 60,118,
  | 60,155,
  | 62,69,
  | 62,85,
  | 62,99,
  | 62,130,
  | 63,91,
  | 63,104,
  | 63,140,
  | 64,100,
  | 64,114,
  | 64,119,
  | 65,116,
  | 65,117,
  | 66,131,
  | 66,137,
  | 67,89,
  | 68,137,
  | 68,150,
  | 69,132,
  | 70,94,
  | 70,156,
  | 71,84,
  | 71,95,
  | 71,105,
  | 72,74,
  | 72,125,
  | 72,141,
  | 72,153,
  | 73,93,
  | 74,83,
  | 74,109,
  | 74,126,
  | 75,121,
  | 75,122,
  | 76,131,
  | 77,137,
  | 77,150,
  | 78,144,
  | 79,83,
  | 79,126,
  | 79,135,
  | 79,148,
  | 80,84,
  | 80,95,
  | 80,105,
  | 81,97,
  | 81,110,
  | 82,94,
  | 82,156,
  | 83,139,
  | 83,153,
  | 84,123,
  | 85,132,
  | 86,111,
  | 86,124,
  | 86,133,
  | 86,138,
  | 87,103,
  | 87,115,
  | 87,147,
  | 87,154,
  | 88,98,
  | 88,106,
  | 88,149,
  | 89,107,
  | 90,108,
  | 90,134,
  | 91,122,
  | 92,118,
  | 92,155,
  | 93,147,
  | 93,154,
  | 94,124,
  | 94,138,
  | 95,97,
  | 97,105,
  | 97,157,
  | 98,129,
  | 98,144,
  | 99,132,
  | 99,145,
  | 100,120,
  | 100,149,
  | 101,102,
  | 101,146,
  | 101,152,
  | 102,142,
  | 103,156,
  | 104,122,
  | 106,129,
  | 106,144,
  | 107,110,
  | 109,125,
  | 109,141,
  | 109,153,
  | 110,157,
  | 111,128,
  | 111,136,
  | 112,127,
  | 113,116,
  | 113,117,
  | 114,120,
  | 114,149,
  | 115,156,
  | 119,120,
  | 123,135,
  | 123,148,
  | 124,128,
  | 125,143,
  | 125,151,
  | 126,139,
  | 126,153,
  | 127,134,
  | 128,133,
  | 128,138,
  | 129,149,
  | 130,132,
  | 130,145,
  | 133,136,
  | 135,139,
  | 136,143,
  | 136,151,
  | 139,148,
  | 141,143,
  | 141,151,
  | 142,146 |];

